\ LP format - for model browsing. Use MPS format to capture full model detail.
Minimize
  0 y(0) + y(11) + 0 y(12) + y(23) + 1e-05 yMax + 0 d(0) + 0 d(11) + 0 d(12)
   + 0 d(23) - 33 releaseDateAndCP
Subject To
 resR(0,0): 8 x(1,0,0) + 9 x(2,0,0) <= 16
 resR(0,1): 9 x(2,0,0) + 8 x(1,0,1) + 9 x(2,0,1) + 7 x(6,0,1) <= 16
 resR(0,2): 9 x(2,0,0) + 9 x(2,0,1) + 7 x(6,0,1) + 8 x(1,0,2) + 9 x(2,0,2)
   + 7 x(6,0,2) <= 16
 resR(0,3): 9 x(2,0,0) + 9 x(2,0,1) + 7 x(6,0,1) + 9 x(2,0,2) + 7 x(6,0,2)
   + 9 x(2,0,3) <= 16
 resR(0,4): 9 x(2,0,1) + 7 x(6,0,1) + 9 x(2,0,2) + 7 x(6,0,2) + 9 x(2,0,3)
   + 9 x(2,0,4) + 8 x(5,0,4) + 6 x(13,0,4) + 5 x(13,1,4) + 5 x(13,2,4)
   + 6 x(14,0,4) + 5 x(14,1,4) + 5 x(14,2,4) + 6 x(15,0,4) <= 16
 resR(0,5): 7 x(6,0,1) + 9 x(2,0,2) + 7 x(6,0,2) + 9 x(2,0,3) + 9 x(2,0,4)
   + 8 x(5,0,4) + 5 x(13,2,4) + 5 x(14,1,4) + 5 x(14,2,4) + 8 x(5,0,5)
   + 6 x(13,0,5) + 5 x(13,1,5) + 5 x(13,2,5) + 6 x(14,0,5) + 5 x(14,1,5)
   + 5 x(14,2,5) + 6 x(15,0,5) + 4 x(16,0,5) + 3 x(16,1,5) <= 16
 resR(0,6): 7 x(6,0,2) + 9 x(2,0,3) + 9 x(2,0,4) + 5 x(13,2,4)
   + 5 x(14,1,4) + 5 x(14,2,4) + 8 x(5,0,5) + 5 x(13,2,5) + 5 x(14,1,5)
   + 5 x(14,2,5) + 4 x(16,0,5) + 3 x(16,1,5) + 8 x(5,0,6) + 3 x(7,0,6)
   + 6 x(8,0,6) + 6 x(13,0,6) + 5 x(13,1,6) + 5 x(13,2,6) + 6 x(14,0,6)
   + 5 x(14,1,6) + 5 x(14,2,6) + 4 x(16,0,6) <= 16
 resR(0,7): 9 x(2,0,4) + 5 x(13,2,4) + 5 x(14,2,4) + 5 x(13,2,5)
   + 5 x(14,1,5) + 5 x(14,2,5) + 4 x(16,0,5) + 3 x(16,1,5) + 8 x(5,0,6)
   + 6 x(8,0,6) + 5 x(13,2,6) + 5 x(14,1,6) + 5 x(14,2,6) + 4 x(16,0,6)
   + 3 x(7,0,7) + 6 x(8,0,7) + x(10,0,7) + 6 x(13,0,7) + 5 x(13,1,7)
   + 5 x(13,2,7) + 6 x(14,0,7) + 5 x(14,1,7) + 5 x(14,2,7) <= 16
 resR(0,8): 5 x(13,2,4) + 5 x(14,2,4) + 5 x(13,2,5) + 5 x(14,2,5)
   + 4 x(16,0,5) + 3 x(16,1,5) + 6 x(8,0,6) + 5 x(13,2,6) + 5 x(14,1,6)
   + 5 x(14,2,6) + 4 x(16,0,6) + 6 x(8,0,7) + x(10,0,7) + 5 x(13,2,7)
   + 5 x(14,1,7) + 5 x(14,2,7) + 6 x(8,0,8) + x(10,0,8) + 6 x(13,0,8)
   + 5 x(13,1,8) + 5 x(13,2,8) + 6 x(14,0,8) + 5 x(14,1,8) + 5 x(14,2,8)
   <= 16
 resR(0,9): 5 x(13,2,4) + 5 x(14,2,4) + 5 x(13,2,5) + 5 x(14,2,5)
   + 4 x(16,0,5) + 3 x(16,1,5) + 5 x(13,2,6) + 5 x(14,2,6) + 4 x(16,0,6)
   + 6 x(8,0,7) + x(10,0,7) + 5 x(13,2,7) + 5 x(14,1,7) + 5 x(14,2,7)
   + 6 x(8,0,8) + x(10,0,8) + 5 x(13,2,8) + 5 x(14,1,8) + 5 x(14,2,8)
   + 6 x(13,0,9) + 5 x(13,1,9) + 5 x(13,2,9) + 6 x(14,0,9) + 5 x(14,1,9)
   + 5 x(14,2,9) <= 16
 resR(0,10): 5 x(13,2,4) + 5 x(13,2,5) + 5 x(14,2,5) + 4 x(16,0,5)
   + 3 x(16,1,5) + 5 x(13,2,6) + 5 x(14,2,6) + 4 x(16,0,6) + 5 x(13,2,7)
   + 5 x(14,2,7) + 6 x(8,0,8) + x(10,0,8) + 5 x(13,2,8) + 5 x(14,1,8)
   + 5 x(14,2,8) + 5 x(13,2,9) + 5 x(14,1,9) + 5 x(14,2,9) + 6 x(13,0,10)
   + 5 x(13,1,10) + 5 x(13,2,10) + 6 x(14,0,10) + 5 x(14,1,10)
   + 5 x(14,2,10) <= 16
 resR(0,11): 5 x(13,2,4) + 5 x(13,2,5) + 4 x(16,0,5) + 3 x(16,1,5)
   + 5 x(13,2,6) + 5 x(14,2,6) + 4 x(16,0,6) + 5 x(13,2,7) + 5 x(14,2,7)
   + 5 x(13,2,8) + 5 x(14,2,8) + 5 x(13,2,9) + 5 x(14,1,9) + 5 x(14,2,9)
   + 5 x(13,2,10) + 5 x(14,1,10) + 5 x(14,2,10) + 6 x(13,0,11)
   + 5 x(13,1,11) + 5 x(13,2,11) + 6 x(14,0,11) + 5 x(14,1,11)
   + 5 x(14,2,11) <= 16
 resR(0,12): 5 x(13,2,5) + 3 x(16,1,5) + 5 x(13,2,6) + 4 x(16,0,6)
   + 5 x(13,2,7) + 5 x(14,2,7) + 5 x(13,2,8) + 5 x(14,2,8) + 5 x(13,2,9)
   + 5 x(14,2,9) + 5 x(13,2,10) + 5 x(14,1,10) + 5 x(14,2,10)
   + 5 x(13,2,11) + 5 x(14,1,11) + 5 x(14,2,11) + 6 x(13,0,12)
   + 5 x(13,1,12) + 5 x(13,2,12) + 6 x(14,0,12) + 5 x(14,1,12)
   + 5 x(14,2,12) + 2 x(17,0,12) + 2 x(17,1,12) + 2 x(18,0,12)
   + 2 x(18,1,12) + 8 x(19,0,12) + 7 x(19,1,12) <= 16
 resR(0,13): 5 x(13,2,6) + 5 x(13,2,7) + 5 x(13,2,8) + 5 x(14,2,8)
   + 5 x(13,2,9) + 5 x(14,2,9) + 5 x(13,2,10) + 5 x(14,2,10) + 5 x(13,2,11)
   + 5 x(14,1,11) + 5 x(14,2,11) + 5 x(13,2,12) + 5 x(14,1,12)
   + 5 x(14,2,12) + 2 x(17,1,12) + 2 x(18,0,12) + 2 x(18,1,12)
   + 8 x(19,0,12) + 7 x(19,1,12) + 6 x(13,0,13) + 5 x(13,1,13)
   + 6 x(14,0,13) + 5 x(14,1,13) + 5 x(14,2,13) + 2 x(17,0,13)
   + 2 x(17,1,13) + 2 x(18,0,13) + 8 x(19,0,13) <= 16
 resR(0,14): 5 x(13,2,7) + 5 x(13,2,8) + 5 x(13,2,9) + 5 x(14,2,9)
   + 5 x(13,2,10) + 5 x(14,2,10) + 5 x(13,2,11) + 5 x(14,2,11)
   + 5 x(13,2,12) + 5 x(14,1,12) + 5 x(14,2,12) + 2 x(17,1,12)
   + 2 x(18,0,12) + 2 x(18,1,12) + 8 x(19,0,12) + 7 x(19,1,12)
   + 5 x(14,1,13) + 5 x(14,2,13) + 2 x(17,1,13) + 2 x(18,0,13)
   + 8 x(19,0,13) + 6 x(13,0,14) + 5 x(13,1,14) + 6 x(14,0,14)
   + 5 x(14,1,14) + 5 x(14,2,14) + 2 x(17,0,14) <= 16
 resR(0,15): 5 x(13,2,8) + 5 x(13,2,9) + 5 x(13,2,10) + 5 x(14,2,10)
   + 5 x(13,2,11) + 5 x(14,2,11) + 5 x(13,2,12) + 5 x(14,2,12)
   + 2 x(17,1,12) + 2 x(18,0,12) + 2 x(18,1,12) + 8 x(19,0,12)
   + 7 x(19,1,12) + 5 x(14,1,13) + 5 x(14,2,13) + 2 x(17,1,13)
   + 2 x(18,0,13) + 8 x(19,0,13) + 5 x(14,1,14) + 5 x(14,2,14)
   + 6 x(13,0,15) + 5 x(13,1,15) + 6 x(14,0,15) + 5 x(14,1,15)
   + 2 x(17,0,15) <= 16
 resR(0,16): 5 x(13,2,9) + 5 x(13,2,10) + 5 x(13,2,11) + 5 x(14,2,11)
   + 5 x(13,2,12) + 5 x(14,2,12) + 2 x(17,1,12) + 2 x(18,0,12)
   + 2 x(18,1,12) + 8 x(19,0,12) + 7 x(19,1,12) + 5 x(14,2,13)
   + 2 x(17,1,13) + 2 x(18,0,13) + 8 x(19,0,13) + 5 x(14,1,14)
   + 5 x(14,2,14) + 5 x(14,1,15) + 6 x(13,0,16) + 5 x(13,1,16)
   + 6 x(14,0,16) + 5 x(14,1,16) + 2 x(17,0,16) <= 16
 resR(0,17): 5 x(13,2,10) + 5 x(13,2,11) + 5 x(13,2,12) + 5 x(14,2,12)
   + 2 x(18,1,12) + 7 x(19,1,12) + 5 x(14,2,13) + 2 x(17,1,13)
   + 2 x(18,0,13) + 8 x(19,0,13) + 5 x(14,2,14) + 5 x(14,1,15)
   + 5 x(14,1,16) + 6 x(13,0,17) + 5 x(13,1,17) + 6 x(14,0,17)
   + 5 x(14,1,17) + 2 x(17,0,17) + 5 x(20,0,17) + 4 x(20,1,17)
   + 4 x(20,2,17) + 2 x(21,0,17) + 2 x(21,1,17) + 7 x(22,0,17) <= 16
 resR(0,18): 5 x(13,2,11) + 5 x(13,2,12) + 5 x(14,2,13) + 5 x(14,2,14)
   + 5 x(14,1,16) + 5 x(14,1,17) + 4 x(20,1,17) + 4 x(20,2,17)
   + 2 x(21,0,17) + 2 x(21,1,17) + 7 x(22,0,17) + 6 x(13,0,18)
   + 5 x(13,1,18) + 6 x(14,0,18) + 5 x(20,0,18) + 4 x(20,1,18)
   + 4 x(20,2,18) + 2 x(21,0,18) + 2 x(21,1,18) + 7 x(22,0,18) <= 16
 resR(0,19): 5 x(13,2,12) + 5 x(14,2,14) + 5 x(14,1,17) + 4 x(20,1,17)
   + 4 x(20,2,17) + 2 x(21,0,17) + 2 x(21,1,17) + 7 x(22,0,17)
   + 4 x(20,1,18) + 4 x(20,2,18) + 2 x(21,0,18) + 2 x(21,1,18)
   + 7 x(22,0,18) + 6 x(13,0,19) + 5 x(13,1,19) + 6 x(14,0,19)
   + 5 x(20,0,19) + 4 x(20,1,19) + 4 x(20,2,19) + 2 x(21,0,19) <= 16
 resR(0,20): 4 x(20,1,17) + 4 x(20,2,17) + 2 x(21,0,17) + 2 x(21,1,17)
   + 7 x(22,0,17) + 4 x(20,1,18) + 4 x(20,2,18) + 2 x(21,0,18)
   + 2 x(21,1,18) + 7 x(22,0,18) + 4 x(20,1,19) + 4 x(20,2,19)
   + 2 x(21,0,19) + 5 x(20,0,20) + 4 x(20,1,20) + 4 x(20,2,20)
   + 2 x(21,0,20) <= 16
 resR(0,21): 2 x(21,1,17) + 7 x(22,0,17) + 4 x(20,1,18) + 4 x(20,2,18)
   + 2 x(21,0,18) + 2 x(21,1,18) + 7 x(22,0,18) + 4 x(20,1,19)
   + 4 x(20,2,19) + 2 x(21,0,19) + 4 x(20,1,20) + 4 x(20,2,20)
   + 2 x(21,0,20) + 5 x(20,0,21) <= 16
 resR(0,22): 2 x(21,1,17) + 7 x(22,0,17) + 2 x(21,1,18) + 7 x(22,0,18)
   + 4 x(20,1,19) + 4 x(20,2,19) + 2 x(21,0,19) + 4 x(20,1,20)
   + 4 x(20,2,20) + 2 x(21,0,20) + 5 x(20,0,22) <= 16
 resR(0,23): 2 x(21,1,18) + 7 x(22,0,18) + 4 x(20,1,20) + 4 x(20,2,20)
   + 2 x(21,0,20) + 5 x(20,0,23) <= 16
 resR(1,0): 5 x(3,0,0) <= 13
 resR(1,1): 5 x(3,0,1) + 8 x(4,0,1) + 5 x(6,1,1) <= 13
 resR(1,2): 8 x(4,0,1) + 5 x(6,1,1) + 8 x(4,0,2) <= 13
 resR(1,3): 8 x(4,0,1) + 5 x(6,1,1) + 8 x(4,0,2) + 8 x(4,0,3) <= 13
 resR(1,4): 5 x(6,1,1) + 8 x(4,0,2) + 8 x(4,0,3) + 8 x(5,1,4) <= 13
 resR(1,5): 5 x(6,1,1) + 8 x(4,0,3) + 8 x(5,1,4) + 8 x(5,1,5) <= 13
 resR(1,6): 5 x(6,1,1) + 8 x(5,1,5) + 8 x(5,1,6) <= 13
 resR(1,7): 8 x(5,1,6) + 4 x(9,0,7) + 8 x(10,1,7) + 8 x(10,2,7) <= 13
 resR(1,8): 4 x(9,0,7) + 8 x(10,1,7) + 8 x(10,2,7) + 4 x(9,0,8)
   + 8 x(10,1,8) <= 13
 resR(1,9): 8 x(10,1,7) + 8 x(10,2,7) + 4 x(9,0,8) + 8 x(10,1,8)
   + 4 x(9,0,9) <= 13
 resR(1,10): 8 x(10,2,7) + 8 x(10,1,8) + 4 x(9,0,9) <= 13
 resR(2,4): 9 x(13,0,4) + 9 x(13,1,4) + 8 x(13,2,4) + 4 x(14,0,4)
   + 4 x(14,1,4) + 4 x(14,2,4) + 2 x(15,0,4) <= 24
 resR(2,5): 8 x(13,2,4) + 4 x(14,1,4) + 4 x(14,2,4) + 9 x(13,0,5)
   + 9 x(13,1,5) + 8 x(13,2,5) + 4 x(14,0,5) + 4 x(14,1,5) + 4 x(14,2,5)
   + 2 x(15,0,5) + 9 x(16,0,5) + 9 x(16,1,5) <= 24
 resR(2,6): 8 x(13,2,4) + 4 x(14,1,4) + 4 x(14,2,4) + 8 x(13,2,5)
   + 4 x(14,1,5) + 4 x(14,2,5) + 9 x(16,0,5) + 9 x(16,1,5) + 9 x(13,0,6)
   + 9 x(13,1,6) + 8 x(13,2,6) + 4 x(14,0,6) + 4 x(14,1,6) + 4 x(14,2,6)
   + 9 x(16,0,6) <= 24
 resR(2,7): 8 x(13,2,4) + 4 x(14,2,4) + 8 x(13,2,5) + 4 x(14,1,5)
   + 4 x(14,2,5) + 9 x(16,0,5) + 9 x(16,1,5) + 8 x(13,2,6) + 4 x(14,1,6)
   + 4 x(14,2,6) + 9 x(16,0,6) + 9 x(13,0,7) + 9 x(13,1,7) + 8 x(13,2,7)
   + 4 x(14,0,7) + 4 x(14,1,7) + 4 x(14,2,7) <= 24
 resR(2,8): 8 x(13,2,4) + 4 x(14,2,4) + 8 x(13,2,5) + 4 x(14,2,5)
   + 9 x(16,0,5) + 9 x(16,1,5) + 8 x(13,2,6) + 4 x(14,1,6) + 4 x(14,2,6)
   + 9 x(16,0,6) + 8 x(13,2,7) + 4 x(14,1,7) + 4 x(14,2,7) + 9 x(13,0,8)
   + 9 x(13,1,8) + 8 x(13,2,8) + 4 x(14,0,8) + 4 x(14,1,8) + 4 x(14,2,8)
   <= 24
 resR(2,9): 8 x(13,2,4) + 4 x(14,2,4) + 8 x(13,2,5) + 4 x(14,2,5)
   + 9 x(16,0,5) + 9 x(16,1,5) + 8 x(13,2,6) + 4 x(14,2,6) + 9 x(16,0,6)
   + 8 x(13,2,7) + 4 x(14,1,7) + 4 x(14,2,7) + 8 x(13,2,8) + 4 x(14,1,8)
   + 4 x(14,2,8) + 9 x(13,0,9) + 9 x(13,1,9) + 8 x(13,2,9) + 4 x(14,0,9)
   + 4 x(14,1,9) + 4 x(14,2,9) <= 24
 resR(2,10): 8 x(13,2,4) + 8 x(13,2,5) + 4 x(14,2,5) + 9 x(16,0,5)
   + 9 x(16,1,5) + 8 x(13,2,6) + 4 x(14,2,6) + 9 x(16,0,6) + 8 x(13,2,7)
   + 4 x(14,2,7) + 8 x(13,2,8) + 4 x(14,1,8) + 4 x(14,2,8) + 8 x(13,2,9)
   + 4 x(14,1,9) + 4 x(14,2,9) + 9 x(13,0,10) + 9 x(13,1,10) + 8 x(13,2,10)
   + 4 x(14,0,10) + 4 x(14,1,10) + 4 x(14,2,10) <= 24
 resR(2,11): 8 x(13,2,4) + 8 x(13,2,5) + 9 x(16,0,5) + 9 x(16,1,5)
   + 8 x(13,2,6) + 4 x(14,2,6) + 9 x(16,0,6) + 8 x(13,2,7) + 4 x(14,2,7)
   + 8 x(13,2,8) + 4 x(14,2,8) + 8 x(13,2,9) + 4 x(14,1,9) + 4 x(14,2,9)
   + 8 x(13,2,10) + 4 x(14,1,10) + 4 x(14,2,10) + 9 x(13,0,11)
   + 9 x(13,1,11) + 8 x(13,2,11) + 4 x(14,0,11) + 4 x(14,1,11)
   + 4 x(14,2,11) <= 24
 resR(2,12): 8 x(13,2,5) + 9 x(16,1,5) + 8 x(13,2,6) + 9 x(16,0,6)
   + 8 x(13,2,7) + 4 x(14,2,7) + 8 x(13,2,8) + 4 x(14,2,8) + 8 x(13,2,9)
   + 4 x(14,2,9) + 8 x(13,2,10) + 4 x(14,1,10) + 4 x(14,2,10)
   + 8 x(13,2,11) + 4 x(14,1,11) + 4 x(14,2,11) + 9 x(13,0,12)
   + 9 x(13,1,12) + 8 x(13,2,12) + 4 x(14,0,12) + 4 x(14,1,12)
   + 4 x(14,2,12) + 6 x(17,0,12) + 5 x(17,1,12) + 5 x(18,0,12)
   + 5 x(18,1,12) + 9 x(19,0,12) + 6 x(19,1,12) <= 24
 resR(2,13): 8 x(13,2,6) + 8 x(13,2,7) + 8 x(13,2,8) + 4 x(14,2,8)
   + 8 x(13,2,9) + 4 x(14,2,9) + 8 x(13,2,10) + 4 x(14,2,10) + 8 x(13,2,11)
   + 4 x(14,1,11) + 4 x(14,2,11) + 8 x(13,2,12) + 4 x(14,1,12)
   + 4 x(14,2,12) + 5 x(17,1,12) + 5 x(18,0,12) + 5 x(18,1,12)
   + 9 x(19,0,12) + 6 x(19,1,12) + 9 x(13,0,13) + 9 x(13,1,13)
   + 4 x(14,0,13) + 4 x(14,1,13) + 4 x(14,2,13) + 6 x(17,0,13)
   + 5 x(17,1,13) + 5 x(18,0,13) + 9 x(19,0,13) <= 24
 resR(2,14): 8 x(13,2,7) + 8 x(13,2,8) + 8 x(13,2,9) + 4 x(14,2,9)
   + 8 x(13,2,10) + 4 x(14,2,10) + 8 x(13,2,11) + 4 x(14,2,11)
   + 8 x(13,2,12) + 4 x(14,1,12) + 4 x(14,2,12) + 5 x(17,1,12)
   + 5 x(18,0,12) + 5 x(18,1,12) + 9 x(19,0,12) + 6 x(19,1,12)
   + 4 x(14,1,13) + 4 x(14,2,13) + 5 x(17,1,13) + 5 x(18,0,13)
   + 9 x(19,0,13) + 9 x(13,0,14) + 9 x(13,1,14) + 4 x(14,0,14)
   + 4 x(14,1,14) + 4 x(14,2,14) + 6 x(17,0,14) <= 24
 resR(2,15): 8 x(13,2,8) + 8 x(13,2,9) + 8 x(13,2,10) + 4 x(14,2,10)
   + 8 x(13,2,11) + 4 x(14,2,11) + 8 x(13,2,12) + 4 x(14,2,12)
   + 5 x(17,1,12) + 5 x(18,0,12) + 5 x(18,1,12) + 9 x(19,0,12)
   + 6 x(19,1,12) + 4 x(14,1,13) + 4 x(14,2,13) + 5 x(17,1,13)
   + 5 x(18,0,13) + 9 x(19,0,13) + 4 x(14,1,14) + 4 x(14,2,14)
   + 9 x(13,0,15) + 9 x(13,1,15) + 4 x(14,0,15) + 4 x(14,1,15)
   + 6 x(17,0,15) <= 24
 resR(2,16): 8 x(13,2,9) + 8 x(13,2,10) + 8 x(13,2,11) + 4 x(14,2,11)
   + 8 x(13,2,12) + 4 x(14,2,12) + 5 x(17,1,12) + 5 x(18,0,12)
   + 5 x(18,1,12) + 9 x(19,0,12) + 6 x(19,1,12) + 4 x(14,2,13)
   + 5 x(17,1,13) + 5 x(18,0,13) + 9 x(19,0,13) + 4 x(14,1,14)
   + 4 x(14,2,14) + 4 x(14,1,15) + 9 x(13,0,16) + 9 x(13,1,16)
   + 4 x(14,0,16) + 4 x(14,1,16) + 6 x(17,0,16) <= 24
 resR(2,17): 8 x(13,2,10) + 8 x(13,2,11) + 8 x(13,2,12) + 4 x(14,2,12)
   + 5 x(18,1,12) + 6 x(19,1,12) + 4 x(14,2,13) + 5 x(17,1,13)
   + 5 x(18,0,13) + 9 x(19,0,13) + 4 x(14,2,14) + 4 x(14,1,15)
   + 4 x(14,1,16) + 9 x(13,0,17) + 9 x(13,1,17) + 4 x(14,0,17)
   + 4 x(14,1,17) + 6 x(17,0,17) + 8 x(20,0,17) + 5 x(20,1,17)
   + 7 x(20,2,17) + 7 x(21,0,17) + 6 x(21,1,17) + 9 x(22,0,17) <= 24
 resR(2,18): 8 x(13,2,11) + 8 x(13,2,12) + 4 x(14,2,13) + 4 x(14,2,14)
   + 4 x(14,1,16) + 4 x(14,1,17) + 5 x(20,1,17) + 7 x(20,2,17)
   + 7 x(21,0,17) + 6 x(21,1,17) + 9 x(22,0,17) + 9 x(13,0,18)
   + 9 x(13,1,18) + 4 x(14,0,18) + 8 x(20,0,18) + 5 x(20,1,18)
   + 7 x(20,2,18) + 7 x(21,0,18) + 6 x(21,1,18) + 9 x(22,0,18) <= 24
 resR(2,19): 8 x(13,2,12) + 4 x(14,2,14) + 4 x(14,1,17) + 5 x(20,1,17)
   + 7 x(20,2,17) + 7 x(21,0,17) + 6 x(21,1,17) + 9 x(22,0,17)
   + 5 x(20,1,18) + 7 x(20,2,18) + 7 x(21,0,18) + 6 x(21,1,18)
   + 9 x(22,0,18) + 9 x(13,0,19) + 9 x(13,1,19) + 4 x(14,0,19)
   + 8 x(20,0,19) + 5 x(20,1,19) + 7 x(20,2,19) + 7 x(21,0,19) <= 24
 resR(2,20): 5 x(20,1,17) + 7 x(20,2,17) + 7 x(21,0,17) + 6 x(21,1,17)
   + 9 x(22,0,17) + 5 x(20,1,18) + 7 x(20,2,18) + 7 x(21,0,18)
   + 6 x(21,1,18) + 9 x(22,0,18) + 5 x(20,1,19) + 7 x(20,2,19)
   + 7 x(21,0,19) + 8 x(20,0,20) + 5 x(20,1,20) + 7 x(20,2,20)
   + 7 x(21,0,20) <= 24
 resR(2,21): 6 x(21,1,17) + 9 x(22,0,17) + 5 x(20,1,18) + 7 x(20,2,18)
   + 7 x(21,0,18) + 6 x(21,1,18) + 9 x(22,0,18) + 5 x(20,1,19)
   + 7 x(20,2,19) + 7 x(21,0,19) + 5 x(20,1,20) + 7 x(20,2,20)
   + 7 x(21,0,20) + 8 x(20,0,21) <= 24
 resR(2,22): 6 x(21,1,17) + 9 x(22,0,17) + 6 x(21,1,18) + 9 x(22,0,18)
   + 5 x(20,1,19) + 7 x(20,2,19) + 7 x(21,0,19) + 5 x(20,1,20)
   + 7 x(20,2,20) + 7 x(21,0,20) + 8 x(20,0,22) <= 24
 resR(2,23): 6 x(21,1,18) + 9 x(22,0,18) + 5 x(20,1,20) + 7 x(20,2,20)
   + 7 x(21,0,20) + 8 x(20,0,23) <= 24
 modeSel(0): x(0,0,0) + x(0,0,1) = 1
 modeSel(1): x(1,0,0) + x(1,0,1) + x(1,0,2) = 1
 modeSel(2): x(2,0,0) + x(2,0,1) + x(2,0,2) + x(2,0,3) + x(2,0,4) = 1
 modeSel(3): x(3,0,0) + x(3,0,1) = 1
 modeSel(4): x(4,0,1) + x(4,0,2) + x(4,0,3) = 1
 modeSel(5): x(5,0,4) + x(5,0,5) + x(5,0,6) + x(5,1,4) + x(5,1,5)
   + x(5,1,6) = 1
 modeSel(6): x(6,0,1) + x(6,0,2) + x(6,1,1) = 1
 modeSel(7): x(7,0,6) + x(7,0,7) = 1
 modeSel(8): x(8,0,6) + x(8,0,7) + x(8,0,8) = 1
 modeSel(9): x(9,0,7) + x(9,0,8) + x(9,0,9) = 1
 modeSel(10): x(10,0,7) + x(10,0,8) + x(10,1,7) + x(10,2,7) + x(10,1,8)
   = 1
 modeSel(11): x(11,0,10) + x(11,0,11) = 1
 modeSel(12): x(12,0,4) + x(12,0,5) = 1
 modeSel(13): x(13,0,4) + x(13,1,4) + x(13,2,4) + x(13,0,5) + x(13,1,5)
   + x(13,2,5) + x(13,0,6) + x(13,1,6) + x(13,2,6) + x(13,0,7) + x(13,1,7)
   + x(13,2,7) + x(13,0,8) + x(13,1,8) + x(13,2,8) + x(13,0,9) + x(13,1,9)
   + x(13,2,9) + x(13,0,10) + x(13,1,10) + x(13,2,10) + x(13,0,11)
   + x(13,1,11) + x(13,2,11) + x(13,0,12) + x(13,1,12) + x(13,2,12)
   + x(13,0,13) + x(13,1,13) + x(13,0,14) + x(13,1,14) + x(13,0,15)
   + x(13,1,15) + x(13,0,16) + x(13,1,16) + x(13,0,17) + x(13,1,17)
   + x(13,0,18) + x(13,1,18) + x(13,0,19) + x(13,1,19) = 1
 modeSel(14): x(14,0,4) + x(14,1,4) + x(14,2,4) + x(14,0,5) + x(14,1,5)
   + x(14,2,5) + x(14,0,6) + x(14,1,6) + x(14,2,6) + x(14,0,7) + x(14,1,7)
   + x(14,2,7) + x(14,0,8) + x(14,1,8) + x(14,2,8) + x(14,0,9) + x(14,1,9)
   + x(14,2,9) + x(14,0,10) + x(14,1,10) + x(14,2,10) + x(14,0,11)
   + x(14,1,11) + x(14,2,11) + x(14,0,12) + x(14,1,12) + x(14,2,12)
   + x(14,0,13) + x(14,1,13) + x(14,2,13) + x(14,0,14) + x(14,1,14)
   + x(14,2,14) + x(14,0,15) + x(14,1,15) + x(14,0,16) + x(14,1,16)
   + x(14,0,17) + x(14,1,17) + x(14,0,18) + x(14,0,19) = 1
 modeSel(15): x(15,0,4) + x(15,0,5) = 1
 modeSel(16): x(16,0,5) + x(16,1,5) + x(16,0,6) = 1
 modeSel(17): x(17,0,12) + x(17,1,12) + x(17,0,13) + x(17,1,13)
   + x(17,0,14) + x(17,0,15) + x(17,0,16) + x(17,0,17) = 1
 modeSel(18): x(18,0,12) + x(18,1,12) + x(18,0,13) = 1
 modeSel(19): x(19,0,12) + x(19,1,12) + x(19,0,13) = 1
 modeSel(20): x(20,0,17) + x(20,1,17) + x(20,2,17) + x(20,0,18)
   + x(20,1,18) + x(20,2,18) + x(20,0,19) + x(20,1,19) + x(20,2,19)
   + x(20,0,20) + x(20,1,20) + x(20,2,20) + x(20,0,21) + x(20,0,22)
   + x(20,0,23) = 1
 modeSel(21): x(21,0,17) + x(21,1,17) + x(21,0,18) + x(21,1,18)
   + x(21,0,19) + x(21,0,20) = 1
 modeSel(22): x(22,0,17) + x(22,0,18) = 1
 modeSel(23): x(23,0,23) + x(23,0,24) = 1
 consYMax(11): - y(11) + yMax >= 0
 consYMax(23): - y(23) + yMax >= 0
 lnkXU(0,0): x(0,0,0) + x(0,0,1) - u(0,0) = 0
 lnkXU(1,0): x(1,0,0) + x(1,0,1) + x(1,0,2) - u(1,0) = 0
 lnkXU(1,1): - u(1,1) = 0
 lnkXU(1,2): - u(1,2) = 0
 lnkXU(2,0): x(2,0,0) + x(2,0,1) + x(2,0,2) + x(2,0,3) + x(2,0,4) - u(2,0)
   = 0
 lnkXU(2,1): - u(2,1) = 0
 lnkXU(2,2): - u(2,2) = 0
 lnkXU(3,0): x(3,0,0) + x(3,0,1) - u(3,0) = 0
 lnkXU(3,1): - u(3,1) = 0
 lnkXU(3,2): - u(3,2) = 0
 lnkXU(4,0): x(4,0,1) + x(4,0,2) + x(4,0,3) - u(4,0) = 0
 lnkXU(4,1): - u(4,1) = 0
 lnkXU(4,2): - u(4,2) = 0
 lnkXU(5,0): x(5,0,4) + x(5,0,5) + x(5,0,6) - u(5,0) = 0
 lnkXU(5,1): x(5,1,4) + x(5,1,5) + x(5,1,6) - u(5,1) = 0
 lnkXU(5,2): - u(5,2) = 0
 lnkXU(6,0): x(6,0,1) + x(6,0,2) - u(6,0) = 0
 lnkXU(6,1): x(6,1,1) - u(6,1) = 0
 lnkXU(6,2): - u(6,2) = 0
 lnkXU(7,0): x(7,0,6) + x(7,0,7) - u(7,0) = 0
 lnkXU(7,1): - u(7,1) = 0
 lnkXU(7,2): - u(7,2) = 0
 lnkXU(8,0): x(8,0,6) + x(8,0,7) + x(8,0,8) - u(8,0) = 0
 lnkXU(8,1): - u(8,1) = 0
 lnkXU(8,2): - u(8,2) = 0
 lnkXU(9,0): x(9,0,7) + x(9,0,8) + x(9,0,9) - u(9,0) = 0
 lnkXU(9,1): - u(9,1) = 0
 lnkXU(9,2): - u(9,2) = 0
 lnkXU(10,0): x(10,0,7) + x(10,0,8) - u(10,0) = 0
 lnkXU(10,1): x(10,1,7) + x(10,1,8) - u(10,1) = 0
 lnkXU(10,2): x(10,2,7) - u(10,2) = 0
 lnkXU(11,0): x(11,0,10) + x(11,0,11) - u(11,0) = 0
 lnkXU(12,0): x(12,0,4) + x(12,0,5) - u(12,0) = 0
 lnkXU(13,0): x(13,0,4) + x(13,0,5) + x(13,0,6) + x(13,0,7) + x(13,0,8)
   + x(13,0,9) + x(13,0,10) + x(13,0,11) + x(13,0,12) + x(13,0,13)
   + x(13,0,14) + x(13,0,15) + x(13,0,16) + x(13,0,17) + x(13,0,18)
   + x(13,0,19) - u(13,0) = 0
 lnkXU(13,1): x(13,1,4) + x(13,1,5) + x(13,1,6) + x(13,1,7) + x(13,1,8)
   + x(13,1,9) + x(13,1,10) + x(13,1,11) + x(13,1,12) + x(13,1,13)
   + x(13,1,14) + x(13,1,15) + x(13,1,16) + x(13,1,17) + x(13,1,18)
   + x(13,1,19) - u(13,1) = 0
 lnkXU(13,2): x(13,2,4) + x(13,2,5) + x(13,2,6) + x(13,2,7) + x(13,2,8)
   + x(13,2,9) + x(13,2,10) + x(13,2,11) + x(13,2,12) - u(13,2) = 0
 lnkXU(14,0): x(14,0,4) + x(14,0,5) + x(14,0,6) + x(14,0,7) + x(14,0,8)
   + x(14,0,9) + x(14,0,10) + x(14,0,11) + x(14,0,12) + x(14,0,13)
   + x(14,0,14) + x(14,0,15) + x(14,0,16) + x(14,0,17) + x(14,0,18)
   + x(14,0,19) - u(14,0) = 0
 lnkXU(14,1): x(14,1,4) + x(14,1,5) + x(14,1,6) + x(14,1,7) + x(14,1,8)
   + x(14,1,9) + x(14,1,10) + x(14,1,11) + x(14,1,12) + x(14,1,13)
   + x(14,1,14) + x(14,1,15) + x(14,1,16) + x(14,1,17) - u(14,1) = 0
 lnkXU(14,2): x(14,2,4) + x(14,2,5) + x(14,2,6) + x(14,2,7) + x(14,2,8)
   + x(14,2,9) + x(14,2,10) + x(14,2,11) + x(14,2,12) + x(14,2,13)
   + x(14,2,14) - u(14,2) = 0
 lnkXU(15,0): x(15,0,4) + x(15,0,5) - u(15,0) = 0
 lnkXU(15,1): - u(15,1) = 0
 lnkXU(15,2): - u(15,2) = 0
 lnkXU(16,0): x(16,0,5) + x(16,0,6) - u(16,0) = 0
 lnkXU(16,1): x(16,1,5) - u(16,1) = 0
 lnkXU(16,2): - u(16,2) = 0
 lnkXU(17,0): x(17,0,12) + x(17,0,13) + x(17,0,14) + x(17,0,15)
   + x(17,0,16) + x(17,0,17) - u(17,0) = 0
 lnkXU(17,1): x(17,1,12) + x(17,1,13) - u(17,1) = 0
 lnkXU(17,2): - u(17,2) = 0
 lnkXU(18,0): x(18,0,12) + x(18,0,13) - u(18,0) = 0
 lnkXU(18,1): x(18,1,12) - u(18,1) = 0
 lnkXU(18,2): - u(18,2) = 0
 lnkXU(19,0): x(19,0,12) + x(19,0,13) - u(19,0) = 0
 lnkXU(19,1): x(19,1,12) - u(19,1) = 0
 lnkXU(19,2): - u(19,2) = 0
 lnkXU(20,0): x(20,0,17) + x(20,0,18) + x(20,0,19) + x(20,0,20)
   + x(20,0,21) + x(20,0,22) + x(20,0,23) - u(20,0) = 0
 lnkXU(20,1): x(20,1,17) + x(20,1,18) + x(20,1,19) + x(20,1,20) - u(20,1)
   = 0
 lnkXU(20,2): x(20,2,17) + x(20,2,18) + x(20,2,19) + x(20,2,20) - u(20,2)
   = 0
 lnkXU(21,0): x(21,0,17) + x(21,0,18) + x(21,0,19) + x(21,0,20) - u(21,0)
   = 0
 lnkXU(21,1): x(21,1,17) + x(21,1,18) - u(21,1) = 0
 lnkXU(21,2): - u(21,2) = 0
 lnkXU(22,0): x(22,0,17) + x(22,0,18) - u(22,0) = 0
 lnkXU(22,1): - u(22,1) = 0
 lnkXU(22,2): - u(22,2) = 0
 lnkXU(23,0): x(23,0,23) + x(23,0,24) - u(23,0) = 0
 resN(0): 3 u(1,1) + 9 u(2,0) + 5 u(2,1) + 7 u(3,0) + 2 u(3,1) + 9 u(4,0)
   + 9 u(4,1) + 4 u(5,0) + 8 u(6,1) + 3 u(7,2) + 2 u(8,1) + 8 u(9,0)
   + 8 u(9,1) + 5 u(9,2) + 8 u(10,1) <= 44
 resN(1): 7 u(1,0) + 5 u(1,2) + 5 u(2,2) + 7 u(3,2) + 7 u(4,2) + 6 u(5,1)
   + 5 u(5,2) + 6 u(6,0) + 4 u(6,2) + 6 u(7,0) + 2 u(7,1) + 6 u(8,0)
   + 3 u(8,2) + 6 u(10,0) + 6 u(10,2) <= 39
 resN(2): 7 u(13,0) + 5 u(14,2) + 7 u(15,1) + 6 u(16,0) + 6 u(16,1)
   + 6 u(17,1) + 5 u(17,2) + 8 u(18,0) + 5 u(18,1) + 5 u(18,2) + 3 u(19,1)
   + 8 u(20,1) + 5 u(20,2) + 8 u(21,0) + 4 u(21,2) + 8 u(22,1) <= 66
 resN(3): 7 u(13,1) + 5 u(13,2) + 7 u(14,0) + 7 u(14,1) + 7 u(15,0)
   + 6 u(15,2) + 4 u(16,2) + 5 u(17,0) + 10 u(19,0) + 7 u(19,2) + 6 u(20,0)
   + 3 u(21,1) + 7 u(22,0) + 5 u(22,2) <= 56
 lnkXY(1): x(1,0,1) + 2 x(1,0,2) - y(1) = 0
 lnkXY(2): x(2,0,1) + 2 x(2,0,2) + 3 x(2,0,3) + 4 x(2,0,4) - y(2) = 0
 lnkXY(3): x(3,0,1) - y(3) = 0
 lnkXY(4): x(4,0,1) + 2 x(4,0,2) + 3 x(4,0,3) - y(4) = 0
 lnkXY(5): 4 x(5,0,4) + 5 x(5,0,5) + 6 x(5,0,6) + 4 x(5,1,4) + 5 x(5,1,5)
   + 6 x(5,1,6) - y(5) = 0
 lnkXY(6): x(6,0,1) + 2 x(6,0,2) + x(6,1,1) - y(6) = 0
 lnkXY(7): 6 x(7,0,6) + 7 x(7,0,7) - y(7) = 0
 lnkXY(8): 6 x(8,0,6) + 7 x(8,0,7) + 8 x(8,0,8) - y(8) = 0
 lnkXY(9): 7 x(9,0,7) + 8 x(9,0,8) + 9 x(9,0,9) - y(9) = 0
 lnkXY(10): 7 x(10,0,7) + 8 x(10,0,8) + 7 x(10,1,7) + 7 x(10,2,7)
   + 8 x(10,1,8) - y(10) = 0
 lnkXY(11): - y(11) + 10 x(11,0,10) + 11 x(11,0,11) = 0
 lnkXY(13): 4 x(13,0,4) + 4 x(13,1,4) + 4 x(13,2,4) + 5 x(13,0,5)
   + 5 x(13,1,5) + 5 x(13,2,5) + 6 x(13,0,6) + 6 x(13,1,6) + 6 x(13,2,6)
   + 7 x(13,0,7) + 7 x(13,1,7) + 7 x(13,2,7) + 8 x(13,0,8) + 8 x(13,1,8)
   + 8 x(13,2,8) + 9 x(13,0,9) + 9 x(13,1,9) + 9 x(13,2,9) + 10 x(13,0,10)
   + 10 x(13,1,10) + 10 x(13,2,10) + 11 x(13,0,11) + 11 x(13,1,11)
   + 11 x(13,2,11) + 12 x(13,0,12) + 12 x(13,1,12) + 12 x(13,2,12)
   + 13 x(13,0,13) + 13 x(13,1,13) + 14 x(13,0,14) + 14 x(13,1,14)
   + 15 x(13,0,15) + 15 x(13,1,15) + 16 x(13,0,16) + 16 x(13,1,16)
   + 17 x(13,0,17) + 17 x(13,1,17) + 18 x(13,0,18) + 18 x(13,1,18)
   + 19 x(13,0,19) + 19 x(13,1,19) - y(13) = 0
 lnkXY(14): 4 x(14,0,4) + 4 x(14,1,4) + 4 x(14,2,4) + 5 x(14,0,5)
   + 5 x(14,1,5) + 5 x(14,2,5) + 6 x(14,0,6) + 6 x(14,1,6) + 6 x(14,2,6)
   + 7 x(14,0,7) + 7 x(14,1,7) + 7 x(14,2,7) + 8 x(14,0,8) + 8 x(14,1,8)
   + 8 x(14,2,8) + 9 x(14,0,9) + 9 x(14,1,9) + 9 x(14,2,9) + 10 x(14,0,10)
   + 10 x(14,1,10) + 10 x(14,2,10) + 11 x(14,0,11) + 11 x(14,1,11)
   + 11 x(14,2,11) + 12 x(14,0,12) + 12 x(14,1,12) + 12 x(14,2,12)
   + 13 x(14,0,13) + 13 x(14,1,13) + 13 x(14,2,13) + 14 x(14,0,14)
   + 14 x(14,1,14) + 14 x(14,2,14) + 15 x(14,0,15) + 15 x(14,1,15)
   + 16 x(14,0,16) + 16 x(14,1,16) + 17 x(14,0,17) + 17 x(14,1,17)
   + 18 x(14,0,18) + 19 x(14,0,19) - y(14) = 0
 lnkXY(15): 4 x(15,0,4) + 5 x(15,0,5) - y(15) = 0
 lnkXY(16): 5 x(16,0,5) + 5 x(16,1,5) + 6 x(16,0,6) - y(16) = 0
 lnkXY(17): 12 x(17,0,12) + 12 x(17,1,12) + 13 x(17,0,13) + 13 x(17,1,13)
   + 14 x(17,0,14) + 15 x(17,0,15) + 16 x(17,0,16) + 17 x(17,0,17) - y(17)
   = 0
 lnkXY(18): 12 x(18,0,12) + 12 x(18,1,12) + 13 x(18,0,13) - y(18) = 0
 lnkXY(19): 12 x(19,0,12) + 12 x(19,1,12) + 13 x(19,0,13) - y(19) = 0
 lnkXY(20): 17 x(20,0,17) + 17 x(20,1,17) + 17 x(20,2,17) + 18 x(20,0,18)
   + 18 x(20,1,18) + 18 x(20,2,18) + 19 x(20,0,19) + 19 x(20,1,19)
   + 19 x(20,2,19) + 20 x(20,0,20) + 20 x(20,1,20) + 20 x(20,2,20)
   + 21 x(20,0,21) + 22 x(20,0,22) + 23 x(20,0,23) - y(20) = 0
 lnkXY(21): 17 x(21,0,17) + 17 x(21,1,17) + 18 x(21,0,18) + 18 x(21,1,18)
   + 19 x(21,0,19) + 20 x(21,0,20) - y(21) = 0
 lnkXY(22): 17 x(22,0,17) + 18 x(22,0,18) - y(22) = 0
 lnkXY(23): - y(23) + 23 x(23,0,23) + 24 x(23,0,24) = 0
 lnkXD(1): x(1,0,0) + x(1,0,1) + x(1,0,2) - d(1) = 0
 lnkXD(2): 4 x(2,0,0) + 4 x(2,0,1) + 4 x(2,0,2) + 4 x(2,0,3) + 4 x(2,0,4)
   - d(2) = 0
 lnkXD(3): x(3,0,0) + x(3,0,1) - d(3) = 0
 lnkXD(4): 3 x(4,0,1) + 3 x(4,0,2) + 3 x(4,0,3) - d(4) = 0
 lnkXD(5): 2 x(5,0,4) + 2 x(5,0,5) + 2 x(5,0,6) + 2 x(5,1,4) + 2 x(5,1,5)
   + 2 x(5,1,6) - d(5) = 0
 lnkXD(6): 5 x(6,0,1) + 5 x(6,0,2) + 6 x(6,1,1) - d(6) = 0
 lnkXD(7): x(7,0,6) + x(7,0,7) - d(7) = 0
 lnkXD(8): 3 x(8,0,6) + 3 x(8,0,7) + 3 x(8,0,8) - d(8) = 0
 lnkXD(9): 2 x(9,0,7) + 2 x(9,0,8) + 2 x(9,0,9) - d(9) = 0
 lnkXD(10): 3 x(10,0,7) + 3 x(10,0,8) + 3 x(10,1,7) + 4 x(10,2,7)
   + 3 x(10,1,8) - d(10) = 0
 lnkXD(13): x(13,0,4) + x(13,1,4) + 8 x(13,2,4) + x(13,0,5) + x(13,1,5)
   + 8 x(13,2,5) + x(13,0,6) + x(13,1,6) + 8 x(13,2,6) + x(13,0,7)
   + x(13,1,7) + 8 x(13,2,7) + x(13,0,8) + x(13,1,8) + 8 x(13,2,8)
   + x(13,0,9) + x(13,1,9) + 8 x(13,2,9) + x(13,0,10) + x(13,1,10)
   + 8 x(13,2,10) + x(13,0,11) + x(13,1,11) + 8 x(13,2,11) + x(13,0,12)
   + x(13,1,12) + 8 x(13,2,12) + x(13,0,13) + x(13,1,13) + x(13,0,14)
   + x(13,1,14) + x(13,0,15) + x(13,1,15) + x(13,0,16) + x(13,1,16)
   + x(13,0,17) + x(13,1,17) + x(13,0,18) + x(13,1,18) + x(13,0,19)
   + x(13,1,19) - d(13) = 0
 lnkXD(14): x(14,0,4) + 3 x(14,1,4) + 6 x(14,2,4) + x(14,0,5) + 3 x(14,1,5)
   + 6 x(14,2,5) + x(14,0,6) + 3 x(14,1,6) + 6 x(14,2,6) + x(14,0,7)
   + 3 x(14,1,7) + 6 x(14,2,7) + x(14,0,8) + 3 x(14,1,8) + 6 x(14,2,8)
   + x(14,0,9) + 3 x(14,1,9) + 6 x(14,2,9) + x(14,0,10) + 3 x(14,1,10)
   + 6 x(14,2,10) + x(14,0,11) + 3 x(14,1,11) + 6 x(14,2,11) + x(14,0,12)
   + 3 x(14,1,12) + 6 x(14,2,12) + x(14,0,13) + 3 x(14,1,13) + 6 x(14,2,13)
   + x(14,0,14) + 3 x(14,1,14) + 6 x(14,2,14) + x(14,0,15) + 3 x(14,1,15)
   + x(14,0,16) + 3 x(14,1,16) + x(14,0,17) + 3 x(14,1,17) + x(14,0,18)
   + x(14,0,19) - d(14) = 0
 lnkXD(15): x(15,0,4) + x(15,0,5) - d(15) = 0
 lnkXD(16): 7 x(16,0,5) + 8 x(16,1,5) + 7 x(16,0,6) - d(16) = 0
 lnkXD(17): x(17,0,12) + 5 x(17,1,12) + x(17,0,13) + 5 x(17,1,13)
   + x(17,0,14) + x(17,0,15) + x(17,0,16) + x(17,0,17) - d(17) = 0
 lnkXD(18): 5 x(18,0,12) + 6 x(18,1,12) + 5 x(18,0,13) - d(18) = 0
 lnkXD(19): 5 x(19,0,12) + 6 x(19,1,12) + 5 x(19,0,13) - d(19) = 0
 lnkXD(20): x(20,0,17) + 4 x(20,1,17) + 4 x(20,2,17) + x(20,0,18)
   + 4 x(20,1,18) + 4 x(20,2,18) + x(20,0,19) + 4 x(20,1,19) + 4 x(20,2,19)
   + x(20,0,20) + 4 x(20,1,20) + 4 x(20,2,20) + x(20,0,21) + x(20,0,22)
   + x(20,0,23) - d(20) = 0
 lnkXD(21): 4 x(21,0,17) + 6 x(21,1,17) + 4 x(21,0,18) + 6 x(21,1,18)
   + 4 x(21,0,19) + 4 x(21,0,20) - d(21) = 0
 lnkXD(22): 6 x(22,0,17) + 6 x(22,0,18) - d(22) = 0
 precT(1,4): x(1,0,0) + 2 x(1,0,1) + 3 x(1,0,2) - x(4,0,1) - 2 x(4,0,2)
   - 3 x(4,0,3) <= 0
 precT(1,10): x(1,0,0) + 2 x(1,0,1) + 3 x(1,0,2) - 7 x(10,0,7)
   - 8 x(10,0,8) - 7 x(10,1,7) - 7 x(10,2,7) - 8 x(10,1,8) <= 0
 precT(2,8): 4 x(2,0,0) + 5 x(2,0,1) + 6 x(2,0,2) + 7 x(2,0,3) + 8 x(2,0,4)
   - 6 x(8,0,6) - 7 x(8,0,7) - 8 x(8,0,8) <= 0
 precT(3,5): - 4 x(5,0,4) - 5 x(5,0,5) - 6 x(5,0,6) + x(3,0,0) + 2 x(3,0,1)
   - 4 x(5,1,4) - 5 x(5,1,5) - 6 x(5,1,6) <= 0
 precT(3,6): - x(6,0,1) - 2 x(6,0,2) + x(3,0,0) + 2 x(3,0,1) - x(6,1,1)
   <= 0
 precT(4,5): - 4 x(5,0,4) - 5 x(5,0,5) - 6 x(5,0,6) + 4 x(4,0,1)
   + 5 x(4,0,2) + 6 x(4,0,3) - 4 x(5,1,4) - 5 x(5,1,5) - 6 x(5,1,6) <= 0
 precT(5,8): 6 x(5,0,4) + 7 x(5,0,5) + 8 x(5,0,6) - 6 x(8,0,6) - 7 x(8,0,7)
   - 8 x(8,0,8) + 6 x(5,1,4) + 7 x(5,1,5) + 8 x(5,1,6) <= 0
 precT(5,9): 6 x(5,0,4) + 7 x(5,0,5) + 8 x(5,0,6) + 6 x(5,1,4) + 7 x(5,1,5)
   + 8 x(5,1,6) - 7 x(9,0,7) - 8 x(9,0,8) - 9 x(9,0,9) <= 0
 precT(6,7): 6 x(6,0,1) + 7 x(6,0,2) - 6 x(7,0,6) - 7 x(7,0,7) + 7 x(6,1,1)
   <= 0
 precT(6,8): 6 x(6,0,1) + 7 x(6,0,2) - 6 x(8,0,6) - 7 x(8,0,7) - 8 x(8,0,8)
   + 7 x(6,1,1) <= 0
 precT(7,9): 7 x(7,0,6) + 8 x(7,0,7) - 7 x(9,0,7) - 8 x(9,0,8) - 9 x(9,0,9)
   <= 0
 precT(7,10): 7 x(7,0,6) + 8 x(7,0,7) - 7 x(10,0,7) - 8 x(10,0,8)
   - 7 x(10,1,7) - 7 x(10,2,7) - 8 x(10,1,8) <= 0
 precT(8,11): 9 x(8,0,6) + 10 x(8,0,7) + 11 x(8,0,8) - 10 x(11,0,10)
   - 11 x(11,0,11) <= 0
 precT(9,11): 9 x(9,0,7) + 10 x(9,0,8) + 11 x(9,0,9) - 10 x(11,0,10)
   - 11 x(11,0,11) <= 0
 precT(10,11): 10 x(10,0,7) + 11 x(10,0,8) + 10 x(10,1,7) + 11 x(10,2,7)
   + 11 x(10,1,8) - 10 x(11,0,10) - 11 x(11,0,11) <= 0
 precT(13,21): 5 x(13,0,4) + 5 x(13,1,4) + 12 x(13,2,4) + 6 x(13,0,5)
   + 6 x(13,1,5) + 13 x(13,2,5) + 7 x(13,0,6) + 7 x(13,1,6) + 14 x(13,2,6)
   + 8 x(13,0,7) + 8 x(13,1,7) + 15 x(13,2,7) + 9 x(13,0,8) + 9 x(13,1,8)
   + 16 x(13,2,8) + 10 x(13,0,9) + 10 x(13,1,9) + 17 x(13,2,9)
   + 11 x(13,0,10) + 11 x(13,1,10) + 18 x(13,2,10) + 12 x(13,0,11)
   + 12 x(13,1,11) + 19 x(13,2,11) + 13 x(13,0,12) + 13 x(13,1,12)
   + 20 x(13,2,12) + 14 x(13,0,13) + 14 x(13,1,13) + 15 x(13,0,14)
   + 15 x(13,1,14) + 16 x(13,0,15) + 16 x(13,1,15) + 17 x(13,0,16)
   + 17 x(13,1,16) + 18 x(13,0,17) + 18 x(13,1,17) - 17 x(21,0,17)
   - 17 x(21,1,17) + 19 x(13,0,18) + 19 x(13,1,18) - 18 x(21,0,18)
   - 18 x(21,1,18) + 20 x(13,0,19) + 20 x(13,1,19) - 19 x(21,0,19)
   - 20 x(21,0,20) <= 0
 precT(14,21): 5 x(14,0,4) + 7 x(14,1,4) + 10 x(14,2,4) + 6 x(14,0,5)
   + 8 x(14,1,5) + 11 x(14,2,5) + 7 x(14,0,6) + 9 x(14,1,6) + 12 x(14,2,6)
   + 8 x(14,0,7) + 10 x(14,1,7) + 13 x(14,2,7) + 9 x(14,0,8) + 11 x(14,1,8)
   + 14 x(14,2,8) + 10 x(14,0,9) + 12 x(14,1,9) + 15 x(14,2,9)
   + 11 x(14,0,10) + 13 x(14,1,10) + 16 x(14,2,10) + 12 x(14,0,11)
   + 14 x(14,1,11) + 17 x(14,2,11) + 13 x(14,0,12) + 15 x(14,1,12)
   + 18 x(14,2,12) + 14 x(14,0,13) + 16 x(14,1,13) + 19 x(14,2,13)
   + 15 x(14,0,14) + 17 x(14,1,14) + 20 x(14,2,14) + 16 x(14,0,15)
   + 18 x(14,1,15) + 17 x(14,0,16) + 19 x(14,1,16) + 18 x(14,0,17)
   + 20 x(14,1,17) - 17 x(21,0,17) - 17 x(21,1,17) + 19 x(14,0,18)
   - 18 x(21,0,18) - 18 x(21,1,18) + 20 x(14,0,19) - 19 x(21,0,19)
   - 20 x(21,0,20) <= 0
 precT(15,16): 5 x(15,0,4) + 6 x(15,0,5) - 5 x(16,0,5) - 5 x(16,1,5)
   - 6 x(16,0,6) <= 0
 precT(16,17): 12 x(16,0,5) + 13 x(16,1,5) + 13 x(16,0,6) - 12 x(17,0,12)
   - 12 x(17,1,12) - 13 x(17,0,13) - 13 x(17,1,13) - 14 x(17,0,14)
   - 15 x(17,0,15) - 16 x(17,0,16) - 17 x(17,0,17) <= 0
 precT(16,18): 12 x(16,0,5) + 13 x(16,1,5) + 13 x(16,0,6) - 12 x(18,0,12)
   - 12 x(18,1,12) - 13 x(18,0,13) <= 0
 precT(16,19): 12 x(16,0,5) + 13 x(16,1,5) + 13 x(16,0,6) - 12 x(19,0,12)
   - 12 x(19,1,12) - 13 x(19,0,13) <= 0
 precT(17,22): 13 x(17,0,12) + 17 x(17,1,12) + 14 x(17,0,13)
   + 18 x(17,1,13) + 15 x(17,0,14) + 16 x(17,0,15) + 17 x(17,0,16)
   + 18 x(17,0,17) - 17 x(22,0,17) - 18 x(22,0,18) <= 0
 precT(18,20): 17 x(18,0,12) + 18 x(18,1,12) + 18 x(18,0,13)
   - 17 x(20,0,17) - 17 x(20,1,17) - 17 x(20,2,17) - 18 x(20,0,18)
   - 18 x(20,1,18) - 18 x(20,2,18) - 19 x(20,0,19) - 19 x(20,1,19)
   - 19 x(20,2,19) - 20 x(20,0,20) - 20 x(20,1,20) - 20 x(20,2,20)
   - 21 x(20,0,21) - 22 x(20,0,22) - 23 x(20,0,23) <= 0
 precT(18,22): 17 x(18,0,12) + 18 x(18,1,12) + 18 x(18,0,13)
   - 17 x(22,0,17) - 18 x(22,0,18) <= 0
 precT(19,20): 17 x(19,0,12) + 18 x(19,1,12) + 18 x(19,0,13)
   - 17 x(20,0,17) - 17 x(20,1,17) - 17 x(20,2,17) - 18 x(20,0,18)
   - 18 x(20,1,18) - 18 x(20,2,18) - 19 x(20,0,19) - 19 x(20,1,19)
   - 19 x(20,2,19) - 20 x(20,0,20) - 20 x(20,1,20) - 20 x(20,2,20)
   - 21 x(20,0,21) - 22 x(20,0,22) - 23 x(20,0,23) <= 0
 precT(19,21): 17 x(19,0,12) + 18 x(19,1,12) + 18 x(19,0,13)
   - 17 x(21,0,17) - 17 x(21,1,17) - 18 x(21,0,18) - 18 x(21,1,18)
   - 19 x(21,0,19) - 20 x(21,0,20) <= 0
 precT(19,22): 17 x(19,0,12) + 18 x(19,1,12) + 18 x(19,0,13)
   - 17 x(22,0,17) - 18 x(22,0,18) <= 0
 precT(20,23): 18 x(20,0,17) + 21 x(20,1,17) + 21 x(20,2,17)
   + 19 x(20,0,18) + 22 x(20,1,18) + 22 x(20,2,18) + 20 x(20,0,19)
   + 23 x(20,1,19) + 23 x(20,2,19) + 21 x(20,0,20) + 24 x(20,1,20)
   + 24 x(20,2,20) + 22 x(20,0,21) + 23 x(20,0,22) + 24 x(20,0,23)
   - 23 x(23,0,23) - 24 x(23,0,24) <= 0
 precT(21,23): 21 x(21,0,17) + 23 x(21,1,17) + 22 x(21,0,18)
   + 24 x(21,1,18) + 23 x(21,0,19) + 24 x(21,0,20) - 23 x(23,0,23)
   - 24 x(23,0,24) <= 0
 precT(22,23): 23 x(22,0,17) + 24 x(22,0,18) - 23 x(23,0,23)
   - 24 x(23,0,24) <= 0
 selU(0): u(0,0) = 1
 selU(1): u(1,0) + u(1,1) + u(1,2) = 1
 selU(2): u(2,0) + u(2,1) + u(2,2) = 1
 selU(3): u(3,0) + u(3,1) + u(3,2) = 1
 selU(4): u(4,0) + u(4,1) + u(4,2) = 1
 selU(5): u(5,0) + u(5,1) + u(5,2) = 1
 selU(6): u(6,0) + u(6,1) + u(6,2) = 1
 selU(7): u(7,0) + u(7,1) + u(7,2) = 1
 selU(8): u(8,0) + u(8,1) + u(8,2) = 1
 selU(9): u(9,0) + u(9,1) + u(9,2) = 1
 selU(10): u(10,0) + u(10,1) + u(10,2) = 1
 selU(11): u(11,0) = 1
 selU(12): u(12,0) = 1
 selU(13): u(13,0) + u(13,1) + u(13,2) = 1
 selU(14): u(14,0) + u(14,1) + u(14,2) = 1
 selU(15): u(15,0) + u(15,1) + u(15,2) = 1
 selU(16): u(16,0) + u(16,1) + u(16,2) = 1
 selU(17): u(17,0) + u(17,1) + u(17,2) = 1
 selU(18): u(18,0) + u(18,1) + u(18,2) = 1
 selU(19): u(19,0) + u(19,1) + u(19,2) = 1
 selU(20): u(20,0) + u(20,1) + u(20,2) = 1
 selU(21): u(21,0) + u(21,1) + u(21,2) = 1
 selU(22): u(22,0) + u(22,1) + u(22,2) = 1
 selU(23): u(23,0) = 1
Bounds
 y(0) <= 1
 10 <= y(11) <= 11
 4 <= y(12) <= 5
 23 <= y(23) <= 24
 yMax <= 2.147483647e+09
 d(0) = 0
 d(11) = 0
 d(12) = 0
 d(23) = 0
 releaseDateAndCP = 1
 y(1) <= 2
 y(2) <= 4
 y(3) <= 1
 1 <= y(4) <= 3
 4 <= y(5) <= 6
 1 <= y(6) <= 2
 6 <= y(7) <= 7
 6 <= y(8) <= 8
 7 <= y(9) <= 9
 7 <= y(10) <= 8
 4 <= y(13) <= 19
 4 <= y(14) <= 19
 4 <= y(15) <= 5
 5 <= y(16) <= 6
 12 <= y(17) <= 17
 12 <= y(18) <= 13
 12 <= y(19) <= 13
 17 <= y(20) <= 23
 17 <= y(21) <= 20
 17 <= y(22) <= 18
 1 <= d(1) <= 6
 4 <= d(2) <= 9
 1 <= d(3) <= 10
 3 <= d(4) <= 10
 2 <= d(5) <= 10
 5 <= d(6) <= 10
 1 <= d(7) <= 8
 3 <= d(8) <= 8
 2 <= d(9) <= 10
 3 <= d(10) <= 4
 1 <= d(13) <= 8
 1 <= d(14) <= 6
 1 <= d(15) <= 9
 7 <= d(16) <= 9
 1 <= d(17) <= 9
 5 <= d(18) <= 9
 5 <= d(19) <= 9
 1 <= d(20) <= 4
 4 <= d(21) <= 10
 6 <= d(22) <= 9
Binaries
 x(1,0,0) x(2,0,0) x(1,0,1) x(2,0,1) x(6,0,1) x(1,0,2) x(2,0,2) x(6,0,2)
 x(2,0,3) x(2,0,4) x(5,0,4) x(13,0,4) x(13,1,4) x(13,2,4) x(14,0,4)
 x(14,1,4) x(14,2,4) x(15,0,4) x(5,0,5) x(13,0,5) x(13,1,5) x(13,2,5)
 x(14,0,5) x(14,1,5) x(14,2,5) x(15,0,5) x(16,0,5) x(16,1,5) x(5,0,6)
 x(7,0,6) x(8,0,6) x(13,0,6) x(13,1,6) x(13,2,6) x(14,0,6) x(14,1,6)
 x(14,2,6) x(16,0,6) x(7,0,7) x(8,0,7) x(10,0,7) x(13,0,7) x(13,1,7)
 x(13,2,7) x(14,0,7) x(14,1,7) x(14,2,7) x(8,0,8) x(10,0,8) x(13,0,8)
 x(13,1,8) x(13,2,8) x(14,0,8) x(14,1,8) x(14,2,8) x(13,0,9) x(13,1,9)
 x(13,2,9) x(14,0,9) x(14,1,9) x(14,2,9) x(13,0,10) x(13,1,10) x(13,2,10)
 x(14,0,10) x(14,1,10) x(14,2,10) x(13,0,11) x(13,1,11) x(13,2,11)
 x(14,0,11) x(14,1,11) x(14,2,11) x(13,0,12) x(13,1,12) x(13,2,12)
 x(14,0,12) x(14,1,12) x(14,2,12) x(17,0,12) x(17,1,12) x(18,0,12)
 x(18,1,12) x(19,0,12) x(19,1,12) x(13,0,13) x(13,1,13) x(14,0,13)
 x(14,1,13) x(14,2,13) x(17,0,13) x(17,1,13) x(18,0,13) x(19,0,13)
 x(13,0,14) x(13,1,14) x(14,0,14) x(14,1,14) x(14,2,14) x(17,0,14)
 x(13,0,15) x(13,1,15) x(14,0,15) x(14,1,15) x(17,0,15) x(13,0,16)
 x(13,1,16) x(14,0,16) x(14,1,16) x(17,0,16) x(13,0,17) x(13,1,17)
 x(14,0,17) x(14,1,17) x(17,0,17) x(20,0,17) x(20,1,17) x(20,2,17)
 x(21,0,17) x(21,1,17) x(22,0,17) x(13,0,18) x(13,1,18) x(14,0,18)
 x(20,0,18) x(20,1,18) x(20,2,18) x(21,0,18) x(21,1,18) x(22,0,18)
 x(13,0,19) x(13,1,19) x(14,0,19) x(20,0,19) x(20,1,19) x(20,2,19)
 x(21,0,19) x(20,0,20) x(20,1,20) x(20,2,20) x(21,0,20) x(20,0,21)
 x(20,0,22) x(20,0,23) x(3,0,0) x(3,0,1) x(4,0,1) x(6,1,1) x(4,0,2)
 x(4,0,3) x(5,1,4) x(5,1,5) x(5,1,6) x(9,0,7) x(10,1,7) x(10,2,7) x(9,0,8)
 x(10,1,8) x(9,0,9) x(0,0,0) x(0,0,1) x(11,0,10) x(11,0,11) x(12,0,4)
 x(12,0,5) x(23,0,23) x(23,0,24) u(0,0) u(1,0) u(1,1) u(1,2) u(2,0) u(2,1)
 u(2,2) u(3,0) u(3,1) u(3,2) u(4,0) u(4,1) u(4,2) u(5,0) u(5,1) u(5,2)
 u(6,0) u(6,1) u(6,2) u(7,0) u(7,1) u(7,2) u(8,0) u(8,1) u(8,2) u(9,0)
 u(9,1) u(9,2) u(10,0) u(10,1) u(10,2) u(11,0) u(12,0) u(13,0) u(13,1)
 u(13,2) u(14,0) u(14,1) u(14,2) u(15,0) u(15,1) u(15,2) u(16,0) u(16,1)
 u(16,2) u(17,0) u(17,1) u(17,2) u(18,0) u(18,1) u(18,2) u(19,0) u(19,1)
 u(19,2) u(20,0) u(20,1) u(20,2) u(21,0) u(21,1) u(21,2) u(22,0) u(22,1)
 u(22,2) u(23,0)
Generals
 yMax d(0) d(11) d(12) d(23) releaseDateAndCP d(1) d(2) d(3) d(4) d(5) d(6)
 d(7) d(8) d(9) d(10) d(13) d(14) d(15) d(16) d(17) d(18) d(19) d(20) d(21)
 d(22)
End
